nvertices = 10;
owners = [1,1,1,1,1,1,1,1,1,1];
colors = [6,0,5,4,0,3,2,0,1,0];
nedges = 13;
sources = [0,1,1,2,3,4,4,5,6,7,7,8,9];
targets = [1,2,3,3,4,5,6,6,7,8,9,9,0];
cost = [0,0,0,0,0,0,0,0,0,0,0,0,0];

